Pb  C 
 1.0000000000000000
    14.2216144259363197    0.0000000000000000    0.0000000000000000
     0.0000000000000000   14.2216144259363197    0.0000000000000000
     0.0000000000000000    0.0000000000000000   40.0000000000000000
 112 120
Selective dynamics
Cartesian
  0.8888509016210200  0.8888509016210200  7.8939690995146279   F   F   F
  2.6665527048630597  2.6665527048630597 10.4080190995149682   F   F   F
  0.8888509016210200  0.8888509016210200 12.9220690995147365   F   F   F
  2.6665527048630597  2.6665527048630597 15.4329446669771961   T   T   T
  0.8888509016210200  0.8888509016210200 17.9210219479736104   T   T   T
  2.6665527048630597  2.6665527048630597 20.5365568749602900   T   T   T
  0.8888509016210200  0.8888509016210200 22.8900813907809777   T   T   T
  0.8888509016210200  4.4442545081051001  7.8939690995146279   F   F   F
  2.6665527048630597  6.2219563113471397 10.4080190995149682   F   F   F
  0.8888509016210200  4.4442545081051001 12.9220690995147365   F   F   F
  2.6665527048630597  6.2219563113471397 15.4329446669771961   T   T   T
  0.8888509016210200  4.4442545081051001 17.9210219479736104   T   T   T
  2.6665527048630597  6.2219563113471397 20.5365568749602900   T   T   T
  0.8888509016210200  4.4442545081051001 22.8900813907809777   T   T   T
  4.4442545081051001  0.8888509016210200  7.8939690995146279   F   F   F
  6.2219563113471397  2.6665527048630597 10.4080190995149682   F   F   F
  4.4442545081051001  0.8888509016210200 12.9220690995147365   F   F   F
  6.2219563113471397  2.6665527048630597 15.4329446669771961   T   T   T
  4.4442545081051001  0.8888509016210200 17.9210219479736104   T   T   T
  6.2219563113471397  2.6665527048630597 20.5365568749602900   T   T   T
  4.4442545081051001  0.8888509016210200 22.8900813907809777   T   T   T
  4.4442545081051001  4.4442545081051001  7.8939690995146279   F   F   F
  6.2219563113471397  6.2219563113471397 10.4080190995149682   F   F   F
  4.4442545081051001  4.4442545081051001 12.9220690995147365   F   F   F
  6.2219563113471397  6.2219563113471397 15.4329446669771961   T   T   T
  4.4442545081051001  4.4442545081051001 17.9210219479736104   T   T   T
  6.2219563113471397  6.2219563113471397 20.5365568749602900   T   T   T
  4.4442545081051001  4.4442545081051001 22.8900813907809777   T   T   T
  0.8888509016210200  7.9996581145891801  7.8939690995146279   F   F   F
  2.6665527048630597  9.7773599178312196 10.4080190995149682   F   F   F
  0.8888509016210200  7.9996581145891801 12.9220690995147365   F   F   F
  2.6665527048630597  9.7773599178312196 15.4329446669771961   T   T   T
  0.8888509016210200  7.9996581145891801 17.9210219479736104   T   T   T
  2.6665527048630597  9.7773599178312196 20.5365568749602900   T   T   T
  0.8888509016210200  7.9996581145891801 22.8900813907809777   T   T   T
  0.8888509016210200 11.5550617210732600  7.8939690995146279   F   F   F
  2.6665527048630597 13.3327635243153004 10.4080190995149682   F   F   F
  0.8888509016210200 11.5550617210732600 12.9220690995147365   F   F   F
  2.6665527048630597 13.3327635243153004 15.4329446669771961   T   T   T
  0.8888509016210200 11.5550617210732600 17.9210219479736104   T   T   T
  2.6665527048630597 13.3327635243153004 20.5365568749602900   T   T   T
  0.8888509016210200 11.5550617210732600 22.8900813907809777   T   T   T
  4.4442545081051001  7.9996581145891801  7.8939690995146279   F   F   F
  6.2219563113471397  9.7773599178312196 10.4080190995149682   F   F   F
  4.4442545081051001  7.9996581145891801 12.9220690995147365   F   F   F
  6.2219563113471397  9.7773599178312196 15.4329446669771961   T   T   T
  4.4442545081051001  7.9996581145891801 17.9210219479736104   T   T   T
  6.2219563113471397  9.7773599178312196 20.5365568749602900   T   T   T
  4.4442545081051001  7.9996581145891801 22.8900813907809777   T   T   T
  4.4442545081051001 11.5550617210732600  7.8939690995146279   F   F   F
  6.2219563113471397 13.3327635243153004 10.4080190995149682   F   F   F
  4.4442545081051001 11.5550617210732600 12.9220690995147365   F   F   F
  6.2219563113471397 13.3327635243153004 15.4329446669771961   T   T   T
  4.4442545081051001 11.5550617210732600 17.9210219479736104   T   T   T
  6.2219563113471397 13.3327635243153004 20.5365568749602900   T   T   T
  4.4442545081051001 11.5550617210732600 22.8900813907809777   T   T   T
  7.9996581145891801  0.8888509016210200  7.8939690995146279   F   F   F
  9.7773599178312196  2.6665527048630597 10.4080190995149682   F   F   F
  7.9996581145891801  0.8888509016210200 12.9220690995147365   F   F   F
  9.7773599178312196  2.6665527048630597 15.4329446669771961   T   T   T
  7.9996581145891801  0.8888509016210200 17.9210219479736104   T   T   T
  9.7773599178312196  2.6665527048630597 20.5365568749602900   T   T   T
  7.9996581145891801  0.8888509016210200 22.8900813907809777   T   T   T
  7.9996581145891801  4.4442545081051001  7.8939690995146279   F   F   F
  9.7773599178312196  6.2219563113471397 10.4080190995149682   F   F   F
  7.9996581145891801  4.4442545081051001 12.9220690995147365   F   F   F
  9.7773599178312196  6.2219563113471397 15.4329446669771961   T   T   T
  7.9996581145891801  4.4442545081051001 17.9210219479736104   T   T   T
  9.7773599178312196  6.2219563113471397 20.5365568749602900   T   T   T
  7.9996581145891801  4.4442545081051001 22.8900813907809777   T   T   T
 11.5550617210732600  0.8888509016210200  7.8939690995146279   F   F   F
 13.3327635243153004  2.6665527048630597 10.4080190995149682   F   F   F
 11.5550617210732600  0.8888509016210200 12.9220690995147365   F   F   F
 13.3327635243153004  2.6665527048630597 15.4329446669771961   T   T   T
 11.5550617210732600  0.8888509016210200 17.9210219479736104   T   T   T
 13.3327635243153004  2.6665527048630597 20.5365568749602900   T   T   T
 11.5550617210732600  0.8888509016210200 22.8900813907809777   T   T   T
 11.5550617210732600  4.4442545081051001  7.8939690995146279   F   F   F
 13.3327635243153004  6.2219563113471397 10.4080190995149682   F   F   F
 11.5550617210732600  4.4442545081051001 12.9220690995147365   F   F   F
 13.3327635243153004  6.2219563113471397 15.4329446669771961   T   T   T
 11.5550617210732600  4.4442545081051001 17.9210219479736104   T   T   T
 13.3327635243153004  6.2219563113471397 20.5365568749602900   T   T   T
 11.5550617210732600  4.4442545081051001 22.8900813907809777   T   T   T
  7.9996581145891801  7.9996581145891801  7.8939690995146279   F   F   F
  9.7773599178312196  9.7773599178312196 10.4080190995149682   F   F   F
  7.9996581145891801  7.9996581145891801 12.9220690995147365   F   F   F
  9.7773599178312196  9.7773599178312196 15.4329446669771961   T   T   T
  7.9996581145891801  7.9996581145891801 17.9210219479736104   T   T   T
  9.7773599178312196  9.7773599178312196 20.5365568749602900   T   T   T
  7.9996581145891801  7.9996581145891801 22.8900813907809777   T   T   T
  7.9996581145891801 11.5550617210732600  7.8939690995146279   F   F   F
  9.7773599178312196 13.3327635243153004 10.4080190995149682   F   F   F
  7.9996581145891801 11.5550617210732600 12.9220690995147365   F   F   F
  9.7773599178312196 13.3327635243153004 15.4329446669771961   T   T   T
  7.9996581145891801 11.5550617210732600 17.9210219479736104   T   T   T
  9.7773599178312196 13.3327635243153004 20.5365568749602900   T   T   T
  7.9996581145891801 11.5550617210732600 22.8900813907809777   T   T   T
 11.5550617210732600  7.9996581145891801  7.8939690995146279   F   F   F
 13.3327635243153004  9.7773599178312196 10.4080190995149682   F   F   F
 11.5550617210732600  7.9996581145891801 12.9220690995147365   F   F   F
 13.3327635243153004  9.7773599178312196 15.4329446669771961   T   T   T
 11.5550617210732600  7.9996581145891801 17.9210219479736104   T   T   T
 13.3327635243153004  9.7773599178312196 20.5365568749602900   T   T   T
 11.5550617210732600  7.9996581145891801 22.8900813907809777   T   T   T
 11.5550617210732600 11.5550617210732600  7.8939690995146279   F   F   F
 13.3327635243153004 13.3327635243153004 10.4080190995149682   F   F   F
 11.5550617210732600 11.5550617210732600 12.9220690995147365   F   F   F
 13.3327635243153004 13.3327635243153004 15.4329446669771961   T   T   T
 11.5550617210732600 11.5550617210732600 17.9210219479736104   T   T   T
 13.3327635243153004 13.3327635243153004 20.5365568749602900   T   T   T
 11.5550617210732600 11.5550617210732600 22.8900813907809777   T   T   T
  4.0931267193249834  5.7010719585397851 29.7985824122072742   T   T   T
  4.0931267193249834  5.7010719585397851 27.4475298790590827   T   T   T
  4.0931267193249834 -0.3669020639915068 29.7985824122072742   T   T   T
  4.0931267193249834 -0.3669020639915068 27.4475298790590827   T   T   T
  1.2408732806750145  5.7010719585397851 29.7985824122072742   T   T   T
  1.2408732806750145  5.7010719585397851 27.4475298790590827   T   T   T
  1.2408732806750145 -0.3669020639915068 29.7985824122072742   T   T   T
  1.2408732806750145 -0.3669020639915068 27.4475298790590827   T   T   T
  5.7009870112656476  3.8426112138482331 30.0491828649581620   T   T   T
  5.7009870112656476  3.8426112138482331 27.1969294263081878   T   T   T
  5.7009870112656476  1.4915586807000452 30.0491828649581620   T   T   T
  5.7009870112656476  1.4915586807000452 27.1969294263081878   T   T   T
 -0.3669870112656444  3.8426112138482331 30.0491828649581620   T   T   T
 -0.3669870112656444  3.8426112138482331 27.1969294263081878   T   T   T
 -0.3669870112656444  1.4915586807000452 30.0491828649581620   T   T   T
 -0.3669870112656444  1.4915586807000452 27.1969294263081878   T   T   T
  3.8425262665740956  4.0932116665991209 31.6570431568988226   T   T   T
  3.8425262665740956  4.0932116665991209 25.5890691343675307   T   T   T
  3.8425262665740956  1.2409582279491520 31.6570431568988226   T   T   T
  3.8425262665740956  1.2409582279491520 25.5890691343675307   T   T   T
  1.4914737334259076  4.0932116665991209 31.6570431568988226   T   T   T
  1.4914737334259076  4.0932116665991209 25.5890691343675307   T   T   T
  1.4914737334259076  1.2409582279491520 31.6570431568988226   T   T   T
  1.4914737334259076  1.2409582279491520 25.5890691343675307   T   T   T
  3.3935277946484845  5.2687151012774933 30.9305506486441146   T   T   T
  3.3935277946484845  5.2687151012774933 26.3155616426222423   T   T   T
  3.3935277946484845  0.0654547932707761 30.9305506486441146   T   T   T
  3.3935277946484845  0.0654547932707761 26.3155616426222423   T   T   T
  1.9404722053515222  5.2687151012774933 30.9305506486441146   T   T   T
  1.9404722053515222  5.2687151012774933 26.3155616426222423   T   T   T
  1.9404722053515222  0.0654547932707761 30.9305506486441146   T   T   T
  1.9404722053515222  0.0654547932707761 26.3155616426222423   T   T   T
  5.2686301540033558  4.9745794502850771 29.3495839402816614   T   T   T
  5.2686301540033558  4.9745794502850771 27.8965283509846955   T   T   T
  5.2686301540033558  0.3595904442632030 29.3495839402816614   T   T   T
  5.2686301540033558  0.3595904442632030 27.8965283509846955   T   T   T
  0.0653698459966385  4.9745794502850771 29.3495839402816614   T   T   T
  0.0653698459966385  4.9745794502850771 27.8965283509846955   T   T   T
  0.0653698459966385  0.3595904442632030 29.3495839402816614   T   T   T
  0.0653698459966385  0.3595904442632030 27.8965283509846955   T   T   T
  4.9744945030109395  3.3936127419226221 31.2246862996365309   T   T   T
  4.9744945030109395  3.3936127419226221 26.0214259916298118   T   T   T
  4.9744945030109395  1.9405571526256598 31.2246862996365309   T   T   T
  4.9744945030109395  1.9405571526256598 26.0214259916298118   T   T   T
  0.3595054969890654  3.3936127419226221 31.2246862996365309   T   T   T
  0.3595054969890654  3.3936127419226221 26.0214259916298118   T   T   T
  0.3595054969890654  1.9405571526256598 31.2246862996365309   T   T   T
  0.3595054969890654  1.9405571526256598 26.0214259916298118   T   T   T
  2.6669999999999998  3.3666698945482754 32.1060309004853721   T   T   T
  2.6669999999999998  3.3666698945482754 25.1400813907809777   T   T   T
  2.6669999999999998  1.9674999999999994 32.1060309004853721   T   T   T
  2.6669999999999998  1.9674999999999994 25.1400813907809777   T   T   T
  3.3665849472741378  6.1500597021263346 28.6230561456331785   T   T   T
  3.3665849472741378 -0.8158898075780598 28.6230561456331785   T   T   T
  1.9674150527258618  6.1500597021263346 28.6230561456331785   T   T   T
  1.9674150527258618 -0.8158898075780598 28.6230561456331785   T   T   T
  6.1499747548521970  2.6670849472741374 29.3226410929073111   T   T   T
  6.1499747548521970  2.6670849472741374 27.9234711983590387   T   T   T
 -0.8159747548521974  2.6670849472741374 29.3226410929073111   T   T   T
 -0.8159747548521974  2.6670849472741374 27.9234711983590387   T   T   T
 11.2031267193249828 12.8110719585397845 29.7985824122072742   T   T   T
 11.2031267193249828 12.8110719585397845 27.4475298790590827   T   T   T
 11.2031267193249828  6.7430979360084926 29.7985824122072742   T   T   T
 11.2031267193249828  6.7430979360084926 27.4475298790590827   T   T   T
  8.3508732806750139 12.8110719585397845 29.7985824122072742   T   T   T
  8.3508732806750139 12.8110719585397845 27.4475298790590827   T   T   T
  8.3508732806750139  6.7430979360084926 29.7985824122072742   T   T   T
  8.3508732806750139  6.7430979360084926 27.4475298790590827   T   T   T
 12.8109870112656470 10.9526112138482326 30.0491828649581620   T   T   T
 12.8109870112656470 10.9526112138482326 27.1969294263081878   T   T   T
 12.8109870112656470  8.6015586807000446 30.0491828649581620   T   T   T
 12.8109870112656470  8.6015586807000446 27.1969294263081878   T   T   T
  6.7430129887343551 10.9526112138482326 30.0491828649581620   T   T   T
  6.7430129887343551 10.9526112138482326 27.1969294263081878   T   T   T
  6.7430129887343551  8.6015586807000446 30.0491828649581620   T   T   T
  6.7430129887343551  8.6015586807000446 27.1969294263081878   T   T   T
 10.9525262665740950 11.2032116665991204 31.6570431568988226   T   T   T
 10.9525262665740950 11.2032116665991204 25.5890691343675307   T   T   T
 10.9525262665740950  8.3509582279491514 31.6570431568988226   T   T   T
 10.9525262665740950  8.3509582279491514 25.5890691343675307   T   T   T
  8.6014737334259070 11.2032116665991204 31.6570431568988226   T   T   T
  8.6014737334259070 11.2032116665991204 25.5890691343675307   T   T   T
  8.6014737334259070  8.3509582279491514 31.6570431568988226   T   T   T
  8.6014737334259070  8.3509582279491514 25.5890691343675307   T   T   T
 10.5035277946484840 12.3787151012774927 30.9305506486441146   T   T   T
 10.5035277946484840 12.3787151012774927 26.3155616426222423   T   T   T
 10.5035277946484840  7.1754547932707755 30.9305506486441146   T   T   T
 10.5035277946484840  7.1754547932707755 26.3155616426222423   T   T   T
  9.0504722053515216 12.3787151012774927 30.9305506486441146   T   T   T
  9.0504722053515216 12.3787151012774927 26.3155616426222423   T   T   T
  9.0504722053515216  7.1754547932707755 30.9305506486441146   T   T   T
  9.0504722053515216  7.1754547932707755 26.3155616426222423   T   T   T
 12.3786301540033552 12.0845794502850765 29.3495839402816614   T   T   T
 12.3786301540033552 12.0845794502850765 27.8965283509846955   T   T   T
 12.3786301540033552  7.4695904442632024 29.3495839402816614   T   T   T
 12.3786301540033552  7.4695904442632024 27.8965283509846955   T   T   T
  7.1753698459966380 12.0845794502850765 29.3495839402816614   T   T   T
  7.1753698459966380 12.0845794502850765 27.8965283509846955   T   T   T
  7.1753698459966380  7.4695904442632024 29.3495839402816614   T   T   T
  7.1753698459966380  7.4695904442632024 27.8965283509846955   T   T   T
 12.0844945030109390 10.5036127419226215 31.2246862996365309   T   T   T
 12.0844945030109390 10.5036127419226215 26.0214259916298118   T   T   T
 12.0844945030109390  9.0505571526256592 31.2246862996365309   T   T   T
 12.0844945030109390  9.0505571526256592 26.0214259916298118   T   T   T
  7.4695054969890649 10.5036127419226215 31.2246862996365309   T   T   T
  7.4695054969890649 10.5036127419226215 26.0214259916298118   T   T   T
  7.4695054969890649  9.0505571526256592 31.2246862996365309   T   T   T
  7.4695054969890649  9.0505571526256592 26.0214259916298118   T   T   T
  9.7769999999999992 10.4766698945482748 32.1060309004853721   T   T   T
  9.7769999999999992 10.4766698945482748 25.1400813907809777   T   T   T
  9.7769999999999992  9.0774999999999988 32.1060309004853721   T   T   T
  9.7769999999999992  9.0774999999999988 25.1400813907809777   T   T   T
 10.4765849472741372 13.2600597021263340 28.6230561456331785   T   T   T
 10.4765849472741372  6.2941101924219396 28.6230561456331785   T   T   T
  9.0774150527258612 13.2600597021263340 28.6230561456331785   T   T   T
  9.0774150527258612  6.2941101924219396 28.6230561456331785   T   T   T
 13.2599747548521965  9.7770849472741368 29.3226410929073111   T   T   T
 13.2599747548521965  9.7770849472741368 27.9234711983590387   T   T   T
  6.2940252451478020  9.7770849472741368 29.3226410929073111   T   T   T
  6.2940252451478020  9.7770849472741368 27.9234711983590387   T   T   T
